AES/1_5_4/ssaes_r1-20_c5_rw1_e4_f0_k1-20_aes_canon_box_aes_mc_bidirectional/ExperimentMinisat_r5_k16cnf_2011-10-29-160002/Result
WARNING: for repeatability, setting FPU to use double precision
============================[ Problem Statistics ]=============================
|                                                                             |
|  Number of variables:           980                                         |
|  Number of clauses:            5630                                         |
|  Parse time:                   0.00 s                                       |
|  Eliminated clauses:           0.01 Mb                                      |
|  Simplification time:          0.01 s                                       |
|                                                                             |
=============================[ Search Statistics ]==============================
| Conflicts  |          ORIGINAL         |          LEARNT          | Progress |
|            |    Vars  Clauses Literals |    Limit  Clauses Lit/Cl |          |
================================================================================
|        100 |     770     5050    15650 |     1851      100     25 |  6.124 % |
|        250 |     770     5050    15650 |     2036      250     29 |  6.123 % |
|        475 |     770     5050    15650 |     2240      475     31 |  6.123 % |
|        812 |     770     5050    15650 |     2464      812     30 |  6.123 % |
|       1318 |     770     5050    15650 |     2711     1318     28 |  6.123 % |
|       2077 |     770     5050    15650 |     2982     2077     28 |  6.123 % |
|       3216 |     770     5050    15650 |     3280     1636     22 |  6.123 % |
|       4924 |     770     5050    15650 |     3608     3344     24 |  6.123 % |
|       7486 |     770     5050    15650 |     3969     2141     19 |  6.123 % |
|      11330 |     770     5050    15650 |     4366     3936     21 |  6.123 % |
|      17096 |     770     5050    15650 |     4802     2922     19 |  6.123 % |
|      25745 |     770     5050    15650 |     5283     4147     19 |  6.123 % |
|      38719 |     770     5050    15650 |     5811     3589     16 |  6.123 % |
|      58180 |     770     5050    15650 |     6392     5215     19 |  6.123 % |
===============================================================================
restarts              : 219
conflicts             : 69646          (25666 /sec)
decisions             : 89712          (0.00 % random) (33060 /sec)
propagations          : 11864012       (4372077 /sec)
conflict literals     : 1539035        (49.97 % deleted)
Memory used           : 8.00 MB
CPU time              : 2.71359 s

SATISFIABLE
